173
63
86
31
45
83
147
46
88
42
117
89
72
33
60
161
59
78
67
106
121
105
45
47
0
63
48
83
0
48
0
80
53
48
43
688
29
66
64
62
74
90
214
87
107
38
109
78
73
29
198
393
231
68
65
26
259
76
37
46
70
195
294
36
128
115
102
0
92
37
136
36
89
48
54
151
87
111
81
114
87
25
128
88
51
79
65
43
55
227
62
0
50
78
44
93
24
104
94
39
